p edge 100 495
e 1 2
e 1 23
e 1 27
e 1 34
e 1 38
e 1 44
e 1 45
e 1 48
e 1 50
e 1 52
e 1 91
e 1 94
e 1 97
e 2 13
e 2 35
e 2 41
e 2 46
e 2 69
e 2 77
e 2 85
e 2 98
e 3 9
e 3 11
e 3 23
e 3 34
e 3 37
e 3 45
e 3 52
e 3 61
e 3 78
e 3 83
e 3 86
e 4 7
e 4 12
e 4 15
e 4 16
e 4 20
e 4 22
e 4 32
e 4 50
e 4 57
e 4 59
e 4 63
e 4 66
e 5 15
e 5 29
e 5 37
e 5 55
e 5 64
e 5 72
e 5 82
e 6 38
e 6 70
e 6 76
e 6 80
e 6 88
e 6 96
e 7 24
e 7 36
e 7 38
e 7 44
e 7 48
e 7 49
e 7 77
e 7 93
e 8 37
e 8 41
e 8 65
e 8 74
e 8 76
e 8 82
e 9 17
e 9 30
e 9 32
e 9 59
e 9 64
e 9 68
e 9 90
e 9 94
e 10 18
e 10 31
e 10 43
e 10 56
e 10 60
e 10 72
e 10 78
e 10 85
e 10 97
e 11 19
e 11 24
e 11 28
e 11 38
e 11 39
e 11 46
e 11 47
e 11 56
e 11 62
e 11 68
e 11 87
e 11 97
e 11 99
e 11 100
e 12 16
e 12 29
e 12 43
e 12 59
e 12 64
e 12 74
e 12 85
e 12 86
e 12 100
e 13 16
e 13 22
e 13 46
e 13 51
e 13 52
e 13 55
e 13 59
e 13 68
e 13 76
e 13 97
e 13 100
e 14 39
e 14 54
e 14 56
e 14 66
e 14 74
e 14 84
e 14 90
e 15 19
e 15 41
e 15 44
e 15 51
e 15 59
e 15 74
e 15 85
e 15 96
e 16 21
e 16 37
e 16 48
e 16 79
e 16 87
e 16 95
e 17 25
e 17 29
e 17 34
e 17 39
e 17 49
e 17 57
e 17 61
e 17 67
e 17 80
e 17 91
e 18 21
e 18 28
e 18 43
e 18 78
e 18 81
e 18 92
e 18 99
e 19 20
e 19 29
e 19 43
e 19 52
e 19 71
e 19 90
e 20 49
e 20 53
e 20 58
e 20 64
e 20 66
e 20 69
e 20 83
e 20 100
e 21 32
e 21 39
e 21 46
e 21 57
e 21 81
e 21 82
e 21 83
e 21 89
e 21 99
e 22 43
e 22 50
e 22 52
e 22 62
e 22 68
e 23 24
e 23 27
e 23 34
e 23 45
e 23 49
e 23 52
e 23 70
e 23 80
e 23 94
e 23 98
e 23 100
e 24 26
e 24 43
e 24 60
e 24 74
e 24 76
e 24 83
e 24 85
e 24 88
e 24 93
e 25 29
e 25 53
e 25 57
e 25 67
e 25 68
e 25 74
e 25 76
e 25 78
e 26 33
e 26 36
e 26 60
e 26 67
e 26 77
e 26 80
e 27 32
e 27 49
e 27 63
e 27 86
e 28 31
e 28 40
e 28 41
e 28 70
e 28 78
e 28 80
e 28 97
e 28 98
e 28 99
e 29 31
e 29 35
e 29 36
e 29 37
e 29 41
e 29 45
e 29 59
e 29 65
e 29 84
e 29 91
e 29 93
e 29 99
e 30 41
e 30 58
e 30 60
e 30 65
e 30 70
e 30 72
e 30 87
e 30 90
e 31 42
e 31 44
e 31 45
e 31 46
e 31 47
e 31 67
e 31 76
e 31 82
e 31 86
e 31 89
e 31 92
e 31 94
e 32 33
e 32 34
e 32 59
e 32 78
e 32 88
e 33 44
e 33 47
e 33 51
e 33 62
e 33 73
e 34 43
e 34 47
e 34 54
e 34 73
e 34 78
e 34 79
e 34 83
e 34 92
e 34 100
e 35 36
e 35 51
e 35 81
e 35 96
e 36 47
e 36 51
e 36 61
e 36 65
e 36 70
e 36 71
e 36 86
e 36 89
e 37 61
e 37 79
e 38 45
e 38 49
e 38 53
e 38 58
e 38 64
e 38 67
e 38 73
e 38 99
e 39 55
e 39 57
e 39 63
e 39 67
e 39 70
e 39 78
e 39 80
e 39 85
e 39 89
e 40 44
e 40 56
e 40 71
e 40 90
e 40 99
e 40 100
e 41 47
e 41 57
e 41 60
e 41 66
e 41 67
e 41 77
e 41 100
e 42 47
e 42 53
e 42 54
e 42 55
e 42 62
e 42 63
e 43 51
e 43 59
e 43 62
e 43 81
e 43 82
e 43 85
e 43 86
e 43 88
e 43 89
e 44 45
e 44 55
e 44 58
e 44 62
e 44 71
e 44 72
e 44 84
e 44 97
e 44 99
e 44 100
e 45 46
e 45 47
e 45 49
e 45 57
e 45 70
e 45 78
e 45 94
e 46 50
e 46 70
e 47 50
e 47 60
e 47 73
e 47 79
e 47 90
e 47 92
e 47 99
e 48 50
e 48 60
e 48 68
e 48 98
e 49 57
e 49 63
e 49 64
e 49 75
e 49 90
e 49 92
e 49 99
e 50 64
e 50 75
e 50 76
e 50 79
e 50 84
e 50 91
e 51 68
e 51 75
e 51 80
e 51 93
e 52 76
e 52 89
e 52 91
e 53 56
e 53 65
e 53 73
e 53 77
e 53 78
e 53 79
e 53 84
e 53 89
e 54 57
e 54 65
e 54 82
e 54 84
e 55 56
e 55 68
e 55 69
e 55 73
e 55 87
e 55 92
e 55 94
e 56 95
e 57 91
e 57 98
e 58 62
e 58 66
e 58 77
e 58 86
e 59 82
e 59 84
e 59 85
e 59 92
e 60 62
e 60 67
e 60 90
e 60 96
e 60 97
e 61 66
e 61 81
e 61 86
e 61 87
e 61 90
e 61 96
e 62 67
e 62 82
e 63 94
e 63 97
e 63 98
e 64 65
e 64 85
e 64 96
e 64 98
e 65 69
e 65 79
e 65 91
e 66 74
e 66 75
e 66 76
e 66 87
e 66 88
e 67 72
e 67 86
e 67 92
e 67 99
e 68 72
e 68 79
e 68 89
e 68 90
e 69 96
e 70 71
e 70 72
e 70 76
e 70 85
e 70 88
e 70 94
e 71 79
e 71 85
e 71 89
e 71 94
e 72 94
e 73 85
e 74 82
e 75 84
e 75 95
e 76 77
e 77 91
e 77 92
e 78 92
e 78 97
e 79 87
e 79 94
e 83 91
e 83 97
e 84 86
e 84 87
e 85 93
e 86 90
e 86 94
e 88 89
e 89 98
e 92 96
e 94 100
